data;


param d:= 100;
param r:=5;
param p:=0.800000;
param M:=1000;
param U:=
         1         1        1.587397e+00
         2         1        1.286577e+00
         3         1        9.805870e-01
         4         1       -3.636170e-01
         5         1        4.386469e-02
         6         1       -1.166227e+00
         7         1        1.413805e+00
         8         1        1.244192e+00
         9         1       -7.852986e-01
        10         1       -4.136605e-01
        11         1       -8.119261e-01
        12         1       -6.311034e-01
        13         1       -7.892595e-02
        14         1       -1.363166e+00
        15         1        1.563426e-01
        16         1       -3.775397e-01
        17         1       -1.300680e+00
        18         1       -8.695820e-01
        19         1       -1.247502e+00
        20         1       -5.325152e-01
        21         1        7.876425e-01
        22         1        7.560117e-01
        23         1        1.320618e+00
        24         1        1.155026e+00
        25         1       -5.790725e-01
        26         1       -2.339032e-04
        27         1       -1.638750e+00
        28         1       -1.936161e+00
        29         1        7.392324e-01
        30         1        1.574787e+00
        31         1       -1.098437e+00
        32         1       -1.177148e+00
        33         1        4.361500e-01
        34         1       -1.409709e+00
        35         1        1.465741e+00
        36         1        6.016319e-01
        37         1        6.093579e-01
        38         1       -4.544984e-01
        39         1        6.473600e-02
        40         1        7.908662e-02
        41         1        2.856653e-01
        42         1        4.565377e-01
        43         1       -1.773746e-01
        44         1        4.683470e-01
        45         1        1.272900e+00
        46         1        4.367540e-01
        47         1        1.047562e+00
        48         1        8.104916e-02
        49         1       -4.290857e-01
        50         1       -5.279869e-01
        51         1        3.778048e-01
        52         1        4.885042e-01
        53         1        1.158930e+00
        54         1        5.588486e-01
        55         1        1.003543e+00
        56         1       -9.215377e-01
        57         1       -1.865112e-01
        58         1        5.035148e-01
        59         1        1.897570e+00
        60         1       -1.490762e-01
        61         1       -1.991502e-01
        62         1       -1.690566e-02
        63         1       -1.685446e-01
        64         1       -3.160212e-01
        65         1       -2.049463e+00
        66         1        9.287681e-01
        67         1        7.833695e-01
        68         1        1.406914e+00
        69         1        1.010333e+00
        70         1        1.103877e+00
        71         1       -5.302046e-01
        72         1        1.130955e+00
        73         1       -4.212447e-01
        74         1       -2.153079e-01
        75         1        3.128962e-01
        76         1       -1.511925e-02
        77         1        3.035372e-01
        78         1       -3.787372e-03
        79         1        4.527913e-01
        80         1       -3.478425e-01
        81         1       -5.648484e-01
        82         1        1.269847e+00
        83         1        1.103151e-01
        84         1        5.465942e-01
        85         1       -3.330024e-01
        86         1        9.551957e-02
        87         1       -1.551826e+00
        88         1       -1.339705e+00
        89         1       -6.175613e-01
        90         1       -4.215728e-01
        91         1       -6.907923e-01
        92         1        8.803708e-01
        93         1       -4.357670e-01
        94         1        1.539994e-01
        95         1        1.382024e+00
        96         1       -2.215843e+00
        97         1       -1.334551e+00
        98         1        2.356594e-01
        99         1        4.894928e-01
       100         1       -3.418217e-01
         1         2       -3.244617e-01
         2         2       -1.225400e+00
         3         2        5.143102e-02
         4         2        2.912927e-01
         5         2        2.836936e-01
         6         2       -1.165774e+00
         7         2        9.027817e-01
         8         2        2.930452e-01
         9         2        1.015734e+00
        10         2       -1.488612e+00
        11         2       -4.612251e-01
        12         2        2.289372e-01
        13         2       -9.551598e-01
        14         2       -2.439528e-01
        15         2        1.086779e+00
        16         2       -7.143523e-01
        17         2       -8.660930e-01
        18         2       -7.934097e-01
        19         2       -5.464490e-01
        20         2        7.631737e-01
        21         2       -9.529056e-01
        22         2        5.628243e-01
        23         2        1.171358e+00
        24         2        1.033196e+00
        25         2        3.473684e-02
        26         2       -5.145579e-01
        27         2       -4.210208e-01
        28         2        6.979463e-01
        29         2       -4.566356e-01
        30         2       -7.308600e-01
        31         2        8.667752e-01
        32         2        1.230308e-02
        33         2        3.480710e-01
        34         2       -3.187852e-01
        35         2        3.977931e-01
        36         2       -1.224719e+00
        37         2       -1.079379e+00
        38         2        9.851557e-01
        39         2       -7.531904e-01
        40         2       -1.525710e+00
        41         2       -1.419544e+00
        42         2       -1.247879e+00
        43         2       -5.328112e-01
        44         2       -2.637993e-02
        45         2       -3.799855e-01
        46         2        1.770190e+00
        47         2       -1.707465e-02
        48         2       -1.681131e+00
        49         2       -4.479616e-01
        50         2        9.997433e-01
        51         2        1.356847e+00
        52         2        5.036124e-01
        53         2        9.145679e-02
        54         2       -1.497820e+00
        55         2       -1.030956e+00
        56         2       -9.044770e-01
        57         2       -4.604351e-01
        58         2       -3.881743e-01
        59         2        4.483548e-02
        60         2        9.487603e-01
        61         2        1.037336e+00
        62         2       -4.302591e-01
        63         2        7.658019e-01
        64         2       -3.366402e-02
        65         2       -1.116397e+00
        66         2       -3.086133e-01
        67         2       -1.572397e+00
        68         2       -2.203551e-02
        69         2       -2.879717e+00
        70         2        3.516146e-01
        71         2       -1.131759e+00
        72         2       -7.184427e-01
        73         2       -3.177779e-01
        74         2        1.558063e+00
        75         2        3.261935e-01
        76         2       -2.681770e-02
        77         2       -1.150953e+00
        78         2       -1.951649e+00
        79         2        2.255486e+00
        80         2        2.923979e-01
        81         2       -1.441322e+00
        82         2       -6.895069e-01
        83         2       -9.776297e-01
        84         2        6.172534e-01
        85         2       -8.747312e-01
        86         2       -9.775011e-02
        87         2       -2.094978e-01
        88         2       -2.606030e+00
        89         2       -5.979889e-01
        90         2        1.452238e-01
        91         2       -1.093781e+00
        92         2       -8.046666e-01
        93         2        7.735743e-01
        94         2        4.547406e-01
        95         2        1.292498e-01
        96         2        2.501882e+00
        97         2        1.717655e+00
        98         2       -2.288586e-02
        99         2       -1.744528e+00
       100         2       -4.287034e-01
         1         3        2.631954e-01
         2         3       -1.451512e+00
         3         3       -2.396483e-01
         4         3        1.368669e+00
         5         3        1.679498e-01
         6         3        6.536648e-01
         7         3       -3.167155e-01
         8         3       -5.861609e-01
         9         3       -1.083763e+00
        10         3        3.003069e-01
        11         3       -2.852847e-01
        12         3        1.835104e-01
        13         3        1.091998e+00
        14         3       -1.026898e-01
        15         3        1.378181e+00
        16         3        1.509911e+00
        17         3        1.058412e+00
        18         3        1.119444e+00
        19         3        1.319494e+00
        20         3       -7.567267e-01
        21         3        2.662469e-01
        22         3        8.351214e-02
        23         3       -1.237789e-01
        24         3       -1.710743e+00
        25         3        8.312707e-01
        26         3       -1.242159e+00
        27         3       -1.200635e+00
        28         3        1.266511e+00
        29         3        1.383032e+00
        30         3       -5.759552e-01
        31         3        1.652147e-01
        32         3       -1.337966e+00
        33         3       -1.270608e-01
        34         3        1.681479e+00
        35         3       -8.398076e-01
        36         3        1.120266e+00
        37         3       -1.051655e+00
        38         3       -4.276053e-02
        39         3        1.987812e-01
        40         3       -1.480375e+00
        41         3        3.598814e-01
        42         3        8.632945e-01
        43         3       -9.401360e-01
        44         3       -9.117761e-01
        45         3        6.797100e-01
        46         3       -2.935843e-01
        47         3        5.823406e-01
        48         3        1.914194e+00
        49         3        1.156827e-01
        50         3       -1.059084e+00
        51         3        8.574938e-01
        52         3        6.973457e-01
        53         3       -9.314988e-02
        54         3        1.722015e-01
        55         3       -3.851735e-01
        56         3       -1.788970e-01
        57         3       -3.511713e-01
        58         3       -3.532226e-01
        59         3       -1.458149e+00
        60         3       -6.216304e-01
        61         3        5.546856e-01
        62         3       -1.610888e+00
        63         3       -3.211589e-01
        64         3        3.694451e-01
        65         3       -1.571764e+00
        66         3       -7.917231e-01
        67         3        1.253063e+00
        68         3       -8.134594e-01
        69         3        5.035158e-01
        70         3       -8.576124e-01
        71         3       -1.393025e+00
        72         3       -6.948536e-01
        73         3        7.724198e-01
        74         3       -7.469918e-01
        75         3        7.036841e-01
        76         3        8.513766e-01
        77         3       -1.781647e+00
        78         3        1.188707e+00
        79         3       -5.334435e-01
        80         3       -1.889725e-01
        81         3        1.165697e-02
        82         3       -4.543662e-02
        83         3        4.684730e-01
        84         3        8.688913e-01
        85         3        6.700194e-01
        86         3        9.216420e-01
        87         3       -4.694099e-01
        88         3       -1.158941e+00
        89         3        2.837120e+00
        90         3        3.153886e-01
        91         3       -2.379378e+00
        92         3       -1.774016e-01
        93         3       -1.760660e+00
        94         3       -9.389658e-02
        95         3        6.374043e-01
        96         3       -8.833418e-02
        97         3       -6.041814e-03
        98         3       -1.471235e+00
        99         3       -9.214439e-02
       100         3       -8.649199e-01
         1         4       -1.564652e+00
         2         4        5.028964e-01
         3         4        1.064763e+00
         4         4       -8.552072e-02
         5         4       -5.103560e-01
         6         4       -9.870101e-01
         7         4        5.165197e-01
         8         4       -7.164650e-01
         9         4       -1.721227e-01
        10         4        8.973947e-01
        11         4       -8.733315e-02
        12         4        7.497240e-01
        13         4       -6.516711e-01
        14         4        3.702980e-01
        15         4       -5.770319e-01
        16         4       -2.998225e-01
        17         4        7.595821e-01
        18         4        1.561397e-01
        19         4       -2.863775e-01
        20         4       -1.342387e+00
        21         4       -7.511464e-01
        22         4        1.660692e+00
        23         4       -4.152049e-01
        24         4        8.908087e-02
        25         4       -3.747655e-01
        26         4       -7.556382e-02
        27         4        5.829787e-01
        28         4       -4.702465e-02
        29         4       -2.431815e-01
        30         4        2.221484e-01
        31         4        1.436754e+00
        32         4       -1.472623e+00
        33         4       -1.204084e+00
        34         4        4.669161e-01
        35         4       -1.209251e+00
        36         4        4.156824e-03
        37         4       -3.267736e-02
        38         4       -4.330421e-02
        39         4        1.638376e+00
        40         4       -2.201848e+00
        41         4        1.930670e+00
        42         4        1.378419e+00
        43         4        1.654253e-01
        44         4       -5.401123e-02
        45         4       -5.279201e-01
        46         4        1.056609e+00
        47         4        5.627372e-01
        48         4        1.676796e+00
        49         4        7.687079e-01
        50         4        7.466116e-01
        51         4       -1.275019e+00
        52         4        7.730318e-01
        53         4        1.457371e+00
        54         4       -1.432992e-01
        55         4       -5.998436e-01
        56         4       -4.175232e-01
        57         4       -5.182275e-01
        58         4        2.592677e-02
        59         4        2.007554e-01
        60         4       -6.577079e-01
        61         4        4.875358e-01
        62         4        1.287708e+00
        63         4       -2.519908e-01
        64         4       -8.479447e-01
        65         4        6.905532e-01
        66         4        2.225844e-01
        67         4        1.066588e+00
        68         4       -5.246054e-01
        69         4        4.690720e-01
        70         4       -4.904912e-01
        71         4        1.041072e+00
        72         4        3.845946e-01
        73         4       -1.634879e+00
        74         4       -1.110463e-01
        75         4       -1.632609e+00
        76         4        4.379156e-02
        77         4        1.406118e+00
        78         4        2.153520e-01
        79         4       -1.744928e+00
        80         4       -1.182897e+00
        81         4        6.007163e-01
        82         4        5.331661e-01
        83         4        1.257940e-02
        84         4        9.554206e-01
        85         4        5.654184e-01
        86         4        3.344048e-01
        87         4        1.257204e+00
        88         4       -1.659610e-01
        89         4        1.592919e+00
        90         4       -9.466043e-01
        91         4       -1.847586e+00
        92         4        7.167387e-01
        93         4        7.816290e-01
        94         4       -1.323827e+00
        95         4       -1.929726e-02
        96         4        6.656488e-01
        97         4        1.610394e+00
        98         4        8.706892e-01
        99         4        1.469327e-01
       100         4        1.103833e-01
         1         5        8.695600e-01
         2         5       -3.792098e-01
         3         5        7.094801e-01
         4         5       -2.135000e-01
         5         5        1.488005e-01
         6         5        8.378728e-02
         7         5        1.697286e+00
         8         5       -1.472591e-01
         9         5       -1.578490e-01
        10         5       -9.702188e-01
        11         5        1.210773e+00
        12         5       -6.731790e-01
        13         5       -8.202314e-01
        14         5       -6.248929e-01
        15         5        1.411610e+00
        16         5       -2.039610e+00
        17         5        8.832068e-02
        18         5       -1.826128e-02
        19         5       -1.575951e+00
        20         5        5.767046e-01
        21         5        1.884462e-01
        22         5       -1.143264e+00
        23         5        6.622433e-01
        24         5        9.800708e-01
        25         5        4.814444e-01
        26         5        9.154561e-01
        27         5        6.161254e-02
        28         5       -9.633759e-01
        29         5        1.417415e-01
        30         5       -1.093461e+00
        31         5        6.563630e-01
        32         5        8.070768e-01
        33         5       -8.505997e-01
        34         5       -1.421596e+00
        35         5       -4.695246e-02
        36         5        1.213283e-02
        37         5       -7.914692e-01
        38         5       -8.197981e-01
        39         5       -1.415835e+00
        40         5        9.157846e-01
        41         5        1.369104e+00
        42         5        5.055392e-01
        43         5       -4.138241e-01
        44         5        7.045314e-01
        45         5       -4.863851e-01
        46         5        1.215279e+00
        47         5       -1.733396e-01
        48         5       -7.402066e-01
        49         5        4.682568e-01
        50         5        3.333612e-01
        51         5        1.474630e+00
        52         5        1.429232e-01
        53         5       -2.757645e-01
        54         5        3.070722e-01
        55         5        1.583371e+00
        56         5        2.111421e-01
        57         5        1.038087e-01
        58         5        2.145254e-01
        59         5       -8.464228e-02
        60         5        2.768457e-01
        61         5        7.751378e-01
        62         5       -6.884384e-01
        63         5        4.089358e-02
        64         5        8.251042e-01
        65         5        1.510830e-01
        66         5       -1.465989e+00
        67         5       -2.980193e-01
        68         5       -1.737742e+00
        69         5       -6.779454e-01
        70         5       -1.012004e+00
        71         5       -6.492128e-01
        72         5        1.906692e-01
        73         5       -1.038725e+00
        74         5       -6.005255e-02
        75         5        1.429812e+00
        76         5       -6.237246e-01
        77         5        4.574157e-01
        78         5        9.391591e-01
        79         5        4.431128e-01
        80         5        1.273867e+00
        81         5        1.387299e+00
        82         5       -6.509978e-02
        83         5       -9.391814e-01
        84         5       -1.346874e+00
        85         5        4.187749e-01
        86         5       -4.582601e-01
        87         5        2.425404e+00
        88         5       -8.130547e-01
        89         5        3.376074e-01
        90         5        2.295829e-01
        91         5       -1.650078e+00
        92         5       -5.860198e-01
        93         5       -1.110954e+00
        94         5        1.326684e+00
        95         5       -1.255907e-01
        96         5       -1.017352e-01
        97         5       -2.037799e+00
        98         5        7.947991e-02
        99         5       -1.971013e-01
       100         5       -1.093103e+00
;

param theta:=
    1       -3.037248e-01
    2        4.966686e-01
    3        1.518962e+00
    4       -5.041971e-01
    5       -1.098127e+00
;
param X_true:=
    1       -3.648861e-01
    2       -2.997324e+00
    3       -1.923275e+00
    4        2.442723e+00
    5        3.121216e-01
    6        1.306507e+00
    7       -2.664186e+00
    8       -7.039974e-01
    9       -6.792558e-01
   10        6.751819e-01
   11       -1.434879e+00
   12        9.888138e-01
   13        2.579936e+00
   14        6.644112e-01
   15        1.174768e+00
   16        4.346238e+00
   17        9.780680e-01
   18        1.449370e+00
   19        4.098531e+00
   20       -4.194542e-01
   21       -6.130411e-02
   22        4.663835e-01
   23       -4.561155e-01
   24       -3.549481e+00
   25        1.111881e+00
   26       -3.046479e+00
   27       -1.862962e+00
   28        4.032233e+00
   29        1.510209e+00
   30       -4.358892e-01
   31       -5.861827e-01
   32       -1.724293e+00
   33        1.442923e+00
   34        4.197297e+00
   35       -8.628170e-01
   36        1.259838e+00
   37       -1.402277e+00
   38        1.311193e+00
   39        4.133652e-01
   40       -2.860178e+00
   41       -2.605177e+00
   42       -5.958172e-01
   43       -1.410173e+00
   44       -2.284271e+00
   45        1.133541e+00
   46       -1.483933e+00
   47        5.170547e-01
   48        1.919802e+00
   49       -6.705051e-01
   50       -1.730671e+00
   51        9.074147e-01
   52        6.398593e-01
   53       -8.996593e-01
   54       -9.922867e-01
   55       -2.724984e+00
   56       -4.914448e-01
   57       -6.594134e-01
   58       -1.204164e+00
   59       -2.866098e+00
   60       -3.976198e-01
   61        2.611228e-01
   62       -2.657762e+00
   63        1.139078e-01
   64        2.164301e-01
   65       -2.987418e+00
   66       -1.757050e-01
   67        7.100920e-01
   68        6.642344e-01
   69       -6.528167e-01
   70       -1.057122e-01
   71       -2.356264e+00
   72       -2.043243e+00
   73        2.954811e+00
   74       -3.575052e-01
   75        2.777508e-01
   76        2.145794e+00
   77       -4.694368e+00
   78       -4.262588e-01
   79        6.004593e-01
   80       -8.762948e-01
   81       -2.256736e+00
   82       -7.945279e-01
   83        1.206652e+00
   84        2.411090e+00
   85       -1.839793e-01
   86        1.736455e+00
   87       -3.704378e+00
   88       -1.658611e+00
   89        2.904487e+00
   90        1.027343e+00
   91       -1.240904e+00
   92       -6.531772e-01
   93       -1.515608e+00
   94       -7.779099e-01
   95        1.027695e+00
   96        1.686766e+00
   97        2.651842e+00
   98       -2.801154e+00
   99       -9.204920e-01
  100       -9.859661e-02
;
param X:=
    1       -1.525395e+00
    2       -5.835550e-01
    3       -1.923275e+00
    4       -1.169387e+00
    5       -1.608394e+00
    6       -1.078599e+00
    7       -1.380170e+00
    8        1.004236e+00
    9        1.168012e-01
   10        6.751819e-01
   11       -8.008876e-01
   12        4.233754e-01
   13        3.593802e-01
   14        6.644112e-01
   15        9.002758e-01
   16        4.346238e+00
   17       -1.402580e+00
   18       -3.171193e-01
   19        6.387655e-01
   20        9.774563e-01
   21       -1.294244e+00
   22        1.147104e+00
   23        2.678297e-01
   24       -3.549481e+00
   25       -4.808093e-01
   26        9.298336e-01
   27        5.289262e-01
   28        3.592311e-01
   29       -1.707377e+00
   30        7.709863e-02
   31       -1.699820e+00
   32        4.780136e-01
   33        1.442923e+00
   34        4.197297e+00
   35       -8.940653e-01
   36        1.259838e+00
   37       -1.031258e+00
   38       -6.626803e-01
   39        8.466947e-02
   40       -1.397824e-01
   41        1.679697e+00
   42        1.199466e+00
   43       -4.532609e-01
   44        6.975621e-01
   45       -3.499769e-01
   46       -7.845987e-01
   47       -1.021605e-01
   48       -2.806364e-01
   49        1.222430e-01
   50       -1.730671e+00
   51        9.074147e-01
   52        5.891783e-01
   53        6.632324e-02
   54       -3.512224e-01
   55       -7.484786e-01
   56       -4.914448e-01
   57       -6.654154e-01
   58       -1.204164e+00
   59       -7.539753e-01
   60       -1.370597e-01
   61        9.990691e-01
   62       -8.735653e-01
   63       -9.427233e-01
   64       -4.884029e-03
   65       -2.987418e+00
   66        1.565378e+00
   67        6.969836e-01
   68        6.642344e-01
   69        5.631756e-01
   70       -5.463242e-01
   71       -2.571662e+00
   72       -4.034556e-01
   73       -4.265527e-01
   74        2.063392e-01
   75       -4.652050e-02
   76       -6.370919e-01
   77       -4.694368e+00
   78       -4.001823e-01
   79        6.004593e-01
   80       -2.049601e+00
   81        7.350310e-01
   82       -7.945279e-01
   83       -4.352439e-01
   84        2.411090e+00
   85        1.384447e+00
   86        9.066172e-01
   87       -2.296247e+00
   88       -3.158352e-02
   89       -1.760024e+00
   90        1.027343e+00
   91        9.154107e-01
   92       -1.991793e-02
   93       -7.751725e-02
   94       -9.165013e-01
   95        1.214433e+00
   96       -9.473122e-01
   97        1.101681e+00
   98       -6.624352e-01
   99       -9.493558e-01
  100       -9.859661e-02
;
param outliervec:=
    1    1
    2    1
    3    0
    4    1
    5    1
    6    1
    7    1
    8    1
    9    1
   10    0
   11    1
   12    1
   13    1
   14    0
   15    1
   16    0
   17    1
   18    1
   19    1
   20    1
   21    1
   22    1
   23    1
   24    0
   25    1
   26    1
   27    1
   28    1
   29    1
   30    1
   31    1
   32    1
   33    0
   34    0
   35    1
   36    0
   37    1
   38    1
   39    1
   40    1
   41    1
   42    1
   43    1
   44    1
   45    1
   46    1
   47    1
   48    1
   49    1
   50    0
   51    0
   52    1
   53    1
   54    1
   55    1
   56    0
   57    1
   58    0
   59    1
   60    1
   61    1
   62    1
   63    1
   64    1
   65    0
   66    1
   67    1
   68    0
   69    1
   70    1
   71    1
   72    1
   73    1
   74    1
   75    1
   76    1
   77    0
   78    1
   79    0
   80    1
   81    1
   82    0
   83    1
   84    0
   85    1
   86    1
   87    1
   88    1
   89    1
   90    0
   91    1
   92    1
   93    1
   94    1
   95    1
   96    1
   97    1
   98    1
   99    1
  100    0
;